robust/generate/spp_dkp_Lefebvre_et_al_2026/src/shortest_path_10_9.kp
51
316

[2.97 0.2 1.51 2.83 1.25 4.17 0.69 1.7 2.59 2.14 0.77 0.96 2.84 1.1 1.8 0.21 1.42 1.28 1.95 0.26 3.31 3.2 2.48 3.13 2.56 2.81 3.49 3.82 1.54 1.35 2.65 1.63 3.79 3.12 1.86 3.85 0.08 2.01 0.74 3.7 0.55 3.26 3.72 0.77 1.19 4.04 2.85 1.39 1.82 0.72 0.86 0.87 3.74 3.02 0.45 1.43 2.55 0.05 0.96 3.07 1.2 1.65 0.18 0.33 1.11 0.13 0.77 2.04 3.53 2.86 3.97 2.8]

[6 63 43 43 45 77 26 13 27 46 96 10 16 62 98 76 56 39 61 83 58 4 54 84 27 8 43 51 39 88 67 73 52 31 63 47 52 19 93 2 44 78 50 56 63 21 49 9 31 14 43 27 41 81 62 4 48 63 26 37 88 2 74 53 18 17 92 80 55 92 72 46]
